p cnf 154 16
c ind 80 81 82 83 84 85 87 88 89 90 0
c ind 91 92 96 97 98 99 100 101 102 103 0
c ind 104 105 106 107 108 109 110 111 112 113 0
c ind 114 115 116 117 118 119 120 121 122 123 0
c ind 124 125 126 127 128 129 130 131 132 133 0
c ind 134 135 136 137 138 139 140 141 142 143 0
c ind 144 145 146 147 148 149 150 151 152 86 0
c ind 93 94 95 1 0
c ret 13 47 48 49 14 50 51 52 53 54 0
c ret 55 56 57 58 59 15 60 61 62 63 0
c ret 64 65 66 67 68 69 70 71 72 73 0
c ret 74 75 76 5 16 77 78 79 17 18 0
c ret 19 20 21 6 22 23 24 25 26 7 0
c ret 27 28 29 30 31 32 8 33 34 35 0
c ret 36 37 9 38 39 10 40 41 42 11 0
c ret 43 44 12 45 46 0
2 3 -4 -94 -95 0
-2 4 0
-2 94 0
-2 95 0
-2 -3 0
3 -11 -18 -19 -20 0
-3 20 0
-3 11 0
-3 19 0
-3 18 0
4 -86 -93 0
-4 86 0
-4 93 0
1 2 0
-1 -2 0
153 0

